unknown
(model
; cardinality of BoundSet is 3
(declare-sort BoundSet 0)
; rep: @uc_BoundSet_0
; rep: @uc_BoundSet_1
; rep: @uc_BoundSet_2
; cardinality of UnboundSet is 1
(declare-sort UnboundSet 0)
(declare-fun groundTerm_4 () UnboundSet)
(define-fun IsHigh ((BOUND_VARIABLE_500 BoundSet)) Bool true)
(define-fun OccurredDuring ((BOUND_VARIABLE_507 BoundSet) (BOUND_VARIABLE_508 BoundSet)) Bool true)
(define-fun HasCorrelation ((BOUND_VARIABLE_507 BoundSet) (BOUND_VARIABLE_508 BoundSet)) Bool false)
(define-fun IsClear ((BOUND_VARIABLE_500 BoundSet)) Bool false)
)
sat
(model
; cardinality of BoundSet is 1
(declare-sort BoundSet 0)
; rep: @uc_BoundSet_0
; cardinality of UnboundSet is 1
(declare-sort UnboundSet 0)
(declare-fun groundTerm_9 () UnboundSet)
(define-fun IsHigh ((BOUND_VARIABLE_541 BoundSet)) Bool true)
(define-fun OccurredDuring ((BOUND_VARIABLE_548 BoundSet) (BOUND_VARIABLE_549 BoundSet)) Bool true)
(define-fun HasCorrelation ((BOUND_VARIABLE_548 BoundSet) (BOUND_VARIABLE_549 BoundSet)) Bool true)
(define-fun IsClear ((BOUND_VARIABLE_541 BoundSet)) Bool false)
)
